50
    20    12    67    30    21    16    22    72    25    99    25    45    39    12    29     8    85    49    51    12     2    40    75    96    45    62    51    93    82    26    94    25    99    89    84     4    96    45    67    32    91    31    55     5    15    23    26     7    17    39
     6    10    10     3     7     8     1     2     9     5     1     2     6     6     8     1     9     6     1     1     3     4     8     2     7     9     6     2     5     4     4     7     5     4     9     6     1     4     8     1     1     5     8     7     8     7     4     7     9     4
   517   512   381   491  1009  1099   702   300   931  1533  1390   283   488  1215   392   923  1462   393  1394  1163  1510   620   342  1228  1298   487  1030   729  1510  1502   277  1492   515  1110   806   251   838  1278   474   938  1425  1517  1102   620  1406   704   406   437   471   920
